NAME: PointSet_Angle_30_7
TYPE: TSP
COMMENT: Points chosen discrete uniformly at random out of ${0, \ldots, 500}^2$.
DIMENSION: 30
EDGE_WEIGHT_TYPE: EUC_2D
NODE_COORD_SECTION
1 135 208
2 430 303
3 461 352
4 49 381
5 36 88
6 159 160
7 455 63
8 383 436
9 40 168
10 79 362
11 229 198
12 204 96
13 66 65
14 72 168
15 289 468
16 414 425
17 422 89
18 474 383
19 442 22
20 9 224
21 357 168
22 384 311
23 231 13
24 247 18
25 428 72
26 380 156
27 270 83
28 500 83
29 395 71
30 251 184
EOF
